solution status: optimal solution found
objective value:                     218974.604689958
d11(0,0)                                            1 	(obj:0)
d11(1,1)                                            1 	(obj:0)
d11(1,2)                                            1 	(obj:0)
d11(2,3)                                            1 	(obj:0)
d11(2,5)                                            1 	(obj:0)
d11(3,7)                                            1 	(obj:0)
d11(3,8)                                            1 	(obj:0)
d11(3,9)                                            1 	(obj:0)
d11(3,10)                           0.999999999999996 	(obj:0)
d11(3,11)                                           1 	(obj:0)
d11(3,12)                                           1 	(obj:0)
d11(3,13)                                           1 	(obj:0)
d11(3,14)                                           1 	(obj:0)
d11(4,15)                                           1 	(obj:0)
d11(4,17)                                           1 	(obj:0)
d11(4,19)                                           1 	(obj:0)
d11(4,21)                                           1 	(obj:0)
d11(4,23)                                           1 	(obj:0)
d11(4,25)                                           1 	(obj:0)
d11(4,27)                                           1 	(obj:0)
d11(4,29)                                           1 	(obj:0)
d11(6,63)                                           1 	(obj:0)
d11(6,65)                                           1 	(obj:0)
d11(6,67)                                           1 	(obj:0)
d11(6,69)                                           1 	(obj:0)
d11(6,71)                                           1 	(obj:0)
d11(6,73)                                           1 	(obj:0)
d11(6,75)                                           1 	(obj:0)
d11(6,76)                                           1 	(obj:0)
d11(6,77)                                           1 	(obj:0)
d11(6,79)                                           1 	(obj:0)
d11(6,81)                                           1 	(obj:0)
d11(6,83)                                           1 	(obj:0)
d11(6,85)                                           1 	(obj:0)
d11(6,86)                                           1 	(obj:0)
d11(6,87)                                           1 	(obj:0)
d11(6,89)                                           1 	(obj:0)
d11(6,91)                                           1 	(obj:0)
d11(6,93)                                           1 	(obj:0)
d11(6,95)                                           1 	(obj:0)
d11(6,97)                                           1 	(obj:0)
d11(6,98)                                           1 	(obj:0)
d11(6,99)                                           1 	(obj:0)
d11(6,101)                                          1 	(obj:0)
d11(6,103)                                          1 	(obj:0)
d11(6,105)                                          1 	(obj:0)
d11(6,107)                                          1 	(obj:0)
d11(6,109)                                          1 	(obj:0)
d11(6,111)                                          1 	(obj:0)
d11(6,112)                                          1 	(obj:0)
d11(6,113)                                          1 	(obj:0)
d11(6,115)                                          1 	(obj:0)
d11(6,117)                                          1 	(obj:0)
d11(6,119)                                          1 	(obj:0)
d11(6,121)                                          1 	(obj:0)
d11(6,123)                                          1 	(obj:0)
d11(6,125)                                          1 	(obj:0)
d12(2,4)                                            1 	(obj:0)
d12(2,6)                                            1 	(obj:0)
d12(4,16)                                           1 	(obj:0)
d12(4,18)                                           1 	(obj:0)
d12(4,20)                                           1 	(obj:0)
d12(4,22)                                           1 	(obj:0)
d12(4,24)                                           1 	(obj:0)
d12(4,26)                                           1 	(obj:0)
d12(4,28)                                           1 	(obj:0)
d12(4,30)                                           1 	(obj:0)
d12(5,31)                                           1 	(obj:0)
d12(5,32)                                           1 	(obj:0)
d12(5,33)                                           1 	(obj:0)
d12(5,34)                                           1 	(obj:0)
d12(5,36)                                           1 	(obj:0)
d12(5,37)                                           1 	(obj:0)
d12(5,38)                                           1 	(obj:0)
d12(5,39)                                           1 	(obj:0)
d12(5,40)                                           1 	(obj:0)
d12(5,42)                                           1 	(obj:0)
d12(5,43)                                           1 	(obj:0)
d12(5,44)                                           1 	(obj:0)
d12(5,45)                                           1 	(obj:0)
d12(5,46)                                           1 	(obj:0)
d12(5,47)                                           1 	(obj:0)
d12(5,48)                                           1 	(obj:0)
d12(5,49)                                           1 	(obj:0)
d12(5,50)                                           1 	(obj:0)
d12(5,51)                                           1 	(obj:0)
d12(5,52)                                           1 	(obj:0)
d12(5,53)                                           1 	(obj:0)
d12(5,54)                                           1 	(obj:0)
d12(5,55)                                           1 	(obj:0)
d12(5,56)                                           1 	(obj:0)
d12(5,57)                                           1 	(obj:0)
d12(5,58)                                           1 	(obj:0)
d12(5,59)                                           1 	(obj:0)
d12(5,60)                                           1 	(obj:0)
d12(5,61)                                           1 	(obj:0)
d12(5,62)                                           1 	(obj:0)
d21(3,7)                                            1 	(obj:0)
d21(4,15)                                           1 	(obj:0)
d21(4,16)                                           1 	(obj:0)
d21(4,17)                                           1 	(obj:0)
d21(4,19)                                           1 	(obj:0)
d21(4,23)                                           1 	(obj:0)
d21(5,31)                                           1 	(obj:0)
d21(5,32)                                           1 	(obj:0)
d21(5,33)                                           1 	(obj:0)
d21(5,35)                                           1 	(obj:0)
d21(5,39)                                           1 	(obj:0)
d21(5,47)                                           1 	(obj:0)
d21(6,63)                                           1 	(obj:0)
d21(6,64)                                           1 	(obj:0)
d21(6,65)                                           1 	(obj:0)
d21(6,66)                                           1 	(obj:0)
d21(6,67)                                           1 	(obj:0)
d21(6,68)                                           1 	(obj:0)
d21(6,69)                                           1 	(obj:0)
d21(6,71)                                           1 	(obj:0)
d21(6,72)                                           1 	(obj:0)
d21(6,73)                                           1 	(obj:0)
d21(6,75)                                           1 	(obj:0)
d21(6,79)                                           1 	(obj:0)
d21(6,80)                                           1 	(obj:0)
d21(6,81)                                           1 	(obj:0)
d21(6,83)                                           1 	(obj:0)
d21(6,84)                                           1 	(obj:0)
d21(6,85)                                           1 	(obj:0)
d21(6,87)                                           1 	(obj:0)
d21(6,91)                                           1 	(obj:0)
d21(6,95)                                           1 	(obj:0)
d21(6,96)                                           1 	(obj:0)
d21(6,97)                                           1 	(obj:0)
d21(6,99)                                           1 	(obj:0)
d21(6,103)                                          1 	(obj:0)
d21(6,111)                                          1 	(obj:0)
d21(6,113)                                          1 	(obj:0)
d21(6,115)                                          1 	(obj:0)
STE(1,1)                             4137.75010111118 	(obj:0)
STE(0,0)                                         6300 	(obj:0)
STE(1,2)                                         5796 	(obj:0)
STE(2,3)                             2875.23404225068 	(obj:0)
STE(2,4)                             4274.96229419965 	(obj:0)
STE(2,5)                              4533.4839411395 	(obj:0)
STE(2,6)                             5933.21219308847 	(obj:0)
STE(3,7)                             712.984143361838 	(obj:0)
STE(3,8)                             2371.23404225066 	(obj:0)
STE(3,9)                              2112.7123953108 	(obj:0)
STE(3,10)                            3770.96229419965 	(obj:0)
STE(3,11)                            2371.23404225066 	(obj:0)
STE(3,12)                            4029.48394113947 	(obj:0)
STE(3,13)                            3770.96229419962 	(obj:0)
STE(3,14)                            5429.21219308844 	(obj:0)
STE(4,15)                           -549.531915498904 	(obj:0)
STE(4,16)                            850.196336450088 	(obj:0)
STE(4,17)                            1108.71798338991 	(obj:0)
STE(4,18)                            2508.44623533891 	(obj:0)
STE(4,19)                            850.196336450061 	(obj:0)
STE(4,20)                            2249.92458839905 	(obj:0)
STE(4,21)                            2508.44623533891 	(obj:0)
STE(4,22)                             3908.1744872879 	(obj:0)
STE(4,23)                            1108.71798338991 	(obj:0)
STE(4,24)                            2508.44623533891 	(obj:0)
STE(4,25)                            2766.96788227873 	(obj:0)
STE(4,26)                            4166.69613422772 	(obj:0)
STE(4,27)                            2508.44623533891 	(obj:0)
STE(4,28)                            3908.17448728787 	(obj:0)
STE(4,29)                             4166.6961342277 	(obj:0)
STE(4,30)                            5566.42438617669 	(obj:0)
STE(5,31)                            -1053.5319154989 	(obj:0)
STE(5,32)                            364.271748051035 	(obj:0)
STE(5,33)                            346.196336450088 	(obj:0)
STE(5,34)                            1764.00000000003 	(obj:0)
STE(5,35)                            604.717983389913 	(obj:0)
STE(5,36)                            2022.52164693985 	(obj:0)
STE(5,37)                            2004.44623533891 	(obj:0)
STE(5,38)                            3422.24989888885 	(obj:0)
STE(5,39)                            346.196336450061 	(obj:0)
STE(5,40)                                        1764 	(obj:0)
STE(5,41)                            1745.92458839905 	(obj:0)
STE(5,42)                            3163.72825194899 	(obj:0)
STE(5,43)                            2004.44623533891 	(obj:0)
STE(5,44)                            3422.24989888885 	(obj:0)
STE(5,45)                             3404.1744872879 	(obj:0)
STE(5,46)                            4821.97815083784 	(obj:0)
STE(5,47)                            604.717983389914 	(obj:0)
STE(5,48)                            2022.52164693985 	(obj:0)
STE(5,49)                            2004.44623533891 	(obj:0)
STE(5,50)                            3422.24989888885 	(obj:0)
STE(5,51)                            2262.96788227873 	(obj:0)
STE(5,52)                            3680.77154582867 	(obj:0)
STE(5,53)                            3662.69613422772 	(obj:0)
STE(5,54)                            5080.49979777766 	(obj:0)
STE(5,55)                            2004.44623533891 	(obj:0)
STE(5,56)                            3422.24989888885 	(obj:0)
STE(5,57)                            3404.17448728787 	(obj:0)
STE(5,58)                            4821.97815083781 	(obj:0)
STE(5,59)                             3662.6961342277 	(obj:0)
STE(5,60)                            5080.49979777764 	(obj:0)
STE(5,61)                            5062.42438617669 	(obj:0)
STE(5,62)                            6480.22804972663 	(obj:0)
STE(6,63)                           -3215.78181438775 	(obj:0)
STE(6,64)                            -1557.5319154989 	(obj:0)
STE(6,65)                           -1797.97815083781 	(obj:0)
STE(6,66)                           -139.728251948965 	(obj:0)
STE(6,67)                           -1816.05356243876 	(obj:0)
STE(6,68)                           -157.803663549912 	(obj:0)
STE(6,69)                           -398.249898888818 	(obj:0)
STE(6,70)                            1260.00000000003 	(obj:0)
STE(6,71)                           -1557.53191549893 	(obj:0)
STE(6,72)                            100.717983389913 	(obj:0)
STE(6,73)                           -139.728251948993 	(obj:0)
STE(6,74)                            1518.52164693985 	(obj:0)
STE(6,75)                           -157.803663549939 	(obj:0)
STE(6,76)                            1500.44623533891 	(obj:0)
STE(6,77)                                        1260 	(obj:0)
STE(6,78)                            2918.24989888885 	(obj:0)
STE(6,79)                           -1816.05356243878 	(obj:0)
STE(6,80)                           -157.803663549939 	(obj:0)
STE(6,81)                           -398.249898888845 	(obj:0)
STE(6,82)                                        1260 	(obj:0)
STE(6,83)                           -416.325310489791 	(obj:0)
STE(6,84)                            1241.92458839905 	(obj:0)
STE(6,85)                            1001.47835306015 	(obj:0)
STE(6,86)                            2659.72825194899 	(obj:0)
STE(6,87)                           -157.803663549939 	(obj:0)
STE(6,88)                            1500.44623533891 	(obj:0)
STE(6,89)                                        1260 	(obj:0)
STE(6,90)                            2918.24989888885 	(obj:0)
STE(6,91)                            1241.92458839905 	(obj:0)
STE(6,92)                             2900.1744872879 	(obj:0)
STE(6,93)                            2659.72825194899 	(obj:0)
STE(6,94)                            4317.97815083784 	(obj:0)
STE(6,95)                           -1557.53191549893 	(obj:0)
STE(6,96)                            100.717983389914 	(obj:0)
STE(6,97)                           -139.728251948992 	(obj:0)
STE(6,98)                            1518.52164693985 	(obj:0)
STE(6,99)                           -157.803663549938 	(obj:0)
STE(6,100)                           1500.44623533891 	(obj:0)
STE(6,101)                                       1260 	(obj:0)
STE(6,102)                           2918.24989888885 	(obj:0)
STE(6,103)                           100.717983389886 	(obj:0)
STE(6,104)                           1758.96788227873 	(obj:0)
STE(6,105)                           1518.52164693983 	(obj:0)
STE(6,106)                           3176.77154582867 	(obj:0)
STE(6,107)                           1500.44623533888 	(obj:0)
STE(6,108)                           3158.69613422772 	(obj:0)
STE(6,109)                           2918.24989888882 	(obj:0)
STE(6,110)                           4576.49979777766 	(obj:0)
STE(6,111)                          -157.803663549938 	(obj:0)
STE(6,112)                           1500.44623533891 	(obj:0)
STE(6,113)                                       1260 	(obj:0)
STE(6,114)                           2918.24989888885 	(obj:0)
STE(6,115)                           1241.92458839903 	(obj:0)
STE(6,116)                           2900.17448728787 	(obj:0)
STE(6,117)                           2659.72825194897 	(obj:0)
STE(6,118)                           4317.97815083781 	(obj:0)
STE(6,119)                           1500.44623533885 	(obj:0)
STE(6,120)                            3158.6961342277 	(obj:0)
STE(6,121)                           2918.24989888879 	(obj:0)
STE(6,122)                           4576.49979777764 	(obj:0)
STE(6,123)                           2900.17448728784 	(obj:0)
STE(6,124)                           4558.42438617669 	(obj:0)
STE(6,125)                           4317.97815083778 	(obj:0)
STE(6,126)                           5976.22804972663 	(obj:0)
y1(6,99)                             1492.42490899996 	(obj:0)
y1(6,101)                            1492.42490899996 	(obj:0)
y1(6,103)                            1492.42490899996 	(obj:0)
y1(6,105)                            1492.42490899996 	(obj:0)
y1(6,107)                            1492.42490899996 	(obj:0)
y1(6,109)                            1492.42490899996 	(obj:0)
y1(6,111)                            1492.42490899996 	(obj:0)
y1(6,113)                            1492.42490899996 	(obj:0)
y1(6,115)                            1492.42490899996 	(obj:0)
y1(6,117)                            1492.42490899996 	(obj:0)
y1(6,119)                            1492.42490899996 	(obj:0)
y1(6,121)                            1492.42490899996 	(obj:0)
y1(6,123)                            1492.42490899996 	(obj:0)
y1(6,125)                            1492.42490899996 	(obj:0)
BG(5)                                2568.57033333337 	(obj:10)
BG(6)                                1149.93060391281 	(obj:10)
AVE(1)                               3259.55177567504 	(obj:0)
WB(2)                                3259.55588804169 	(obj:0)
AVE(2)                               3259.55588804169 	(obj:0)
AVE(3)                               3579.36165209166 	(obj:0)
WB(4)                                209.359445096364 	(obj:0)
AVE(4)                               3579.36576445831 	(obj:0)
WB(5)                                3472.77007794174 	(obj:0)
AVE(5)                               3472.77007794174 	(obj:0)
AVE(6)                                3046.3618950668 	(obj:0)
WG(1)                                  3259.551775675 	(obj:10)
WG(3)                                3579.36165209166 	(obj:10)
WG(4)                                3370.00631936195 	(obj:10)
WG(6)                                3046.36189506678 	(obj:10)
BG(1)                                936.740723304561 	(obj:10)
BG(2)                                3370.00631936172 	(obj:10)
BG(3)                                616.930846887931 	(obj:10)
y1(1,1)                              1492.42490899994 	(obj:0)
y1(2,3)                              682.664452974449 	(obj:0)
y1(2,5)                              682.664452974448 	(obj:0)
y1(3,7)                              1492.42490899996 	(obj:0)
y1(3,9)                              1492.42490899996 	(obj:0)
y1(3,11)                             1492.42490899996 	(obj:0)
y1(3,13)                             1492.42490899996 	(obj:0)
y1(4,15)                             682.664452974668 	(obj:0)
y1(4,17)                             682.664452974669 	(obj:0)
y1(4,19)                             682.664452974669 	(obj:0)
y1(4,21)                             682.664452974669 	(obj:0)
y1(4,23)                             682.664452974669 	(obj:0)
y1(4,25)                             682.664452974669 	(obj:0)
y1(4,27)                             682.664452974644 	(obj:0)
y1(4,29)                             682.664452974669 	(obj:0)
y1(6,63)                             1492.42490899996 	(obj:0)
y1(6,65)                             1492.42490899996 	(obj:0)
y1(6,67)                             1492.42490899996 	(obj:0)
y1(6,69)                             1492.42490899996 	(obj:0)
y1(6,71)                             1492.42490899996 	(obj:0)
y1(6,73)                             1492.42490899996 	(obj:0)
y1(6,75)                             1492.42490899996 	(obj:0)
y1(6,77)                             1492.42490899996 	(obj:0)
y1(6,79)                             1492.42490899996 	(obj:0)
y1(6,81)                             1492.42490899996 	(obj:0)
y1(6,83)                             1492.42490899996 	(obj:0)
y1(6,85)                             1492.42490899996 	(obj:0)
y1(6,87)                             1492.42490899996 	(obj:0)
y1(6,89)                             1492.42490899996 	(obj:0)
y1(6,91)                             1492.42490899996 	(obj:0)
y1(6,93)                             1492.42490899996 	(obj:0)
y1(6,95)                             1492.42490899996 	(obj:0)
y1(6,97)                             1492.42490899996 	(obj:0)
y2(2,4)                              674.960203251018 	(obj:0)
y2(2,6)                              674.960203251018 	(obj:0)
y2(4,16)                             674.960203250789 	(obj:0)
y2(4,18)                             674.960203250789 	(obj:0)
y2(4,20)                             674.960203250789 	(obj:0)
y2(4,22)                             674.960203250789 	(obj:0)
y2(4,24)                             674.960203250789 	(obj:0)
y2(4,26)                             674.960203250789 	(obj:0)
y2(4,28)                              674.96020325079 	(obj:0)
y2(4,30)                              674.96020325079 	(obj:0)
y2(5,32)                             1492.42490899994 	(obj:0)
y2(5,34)                             1492.42490899994 	(obj:0)
y2(5,36)                             1492.42490899994 	(obj:0)
y2(5,38)                             1492.42490899994 	(obj:0)
y2(5,40)                             1492.42490899994 	(obj:0)
y2(5,42)                             1492.42490899994 	(obj:0)
y2(5,44)                             1492.42490899994 	(obj:0)
y2(5,46)                             1492.42490899994 	(obj:0)
y2(5,48)                             1492.42490899994 	(obj:0)
y2(5,50)                             1492.42490899994 	(obj:0)
y2(5,52)                             1492.42490899994 	(obj:0)
y2(5,54)                             1492.42490899994 	(obj:0)
y2(5,56)                             1492.42490899994 	(obj:0)
y2(5,58)                             1492.42490899994 	(obj:0)
y2(5,60)                             1492.42490899994 	(obj:0)
y2(5,62)                             1492.42490899994 	(obj:0)
